10 10 3

0 236 275 219 429 122 102 141 58 105 
184 0 126 405 213 266 404 295 232 414 
464 324 0 128 207 80 343 137 272 394 
447 173 433 0 437 116 207 155 495 279 
414 136 494 469 0 477 327 129 397 299 
484 191 482 153 362 0 305 232 68 91 
74 362 70 419 64 400 0 107 451 466 
471 312 217 456 433 59 205 0 401 242 
482 237 138 281 427 487 262 79 0 348 
273 261 366 315 493 227 335 411 448 0 

330 0 5
330 1 3
330 2 1
330 3 4
330 4 3
330 5 3
330 6 4
330 7 8
330 8 2
330 9 0

